1 25 51
 2 35 7
 3 93 75
 4 53 95
 5 51 81
 6 51 55
 7 1 67
 8 9 23
 9 75 7
 10 15 97
 11 79 5
 12 9 19
 13 39 1
 14 47 1
 15 33 97
 16 27 83
 17 83 79
 18 17 59
 19 47 19
 20 57 9
 21 87 41
 22 55 25
 23 21 91
 24 21 13
 25 67 1
 26 59 21
 27 1 75
 28 33 85
 29 25 21
 30 45 29
 31 63 77
 32 1 77
 33 77 41
 34 35 11
 35 9 77
 36 61 87
 37 59 91
 38 63 79
 39 97 67
 40 9 45
 41 93 21
 42 83 71
 43 95 57
 44 31 69
 45 77 17
 46 63 57
 47 3 63
 48 11 69
 49 7 9
 50 37 65
 51 75 83
 52 15 53
 53 69 5
 54 69 27
 55 5 19
 56 49 31
 57 77 17
 58 15 7
 59 91 39
 60 79 17
 61 67 75
 62 93 51
 63 25 33
 64 9 19
 65 3 65
